c Sudoku solution
p cnf 729 0
195 0
257 0
269 0
273 0
296 0
314 0
379 0
397 0
512 0
521 0
546 0
568 0
618 0
625 0
644 0
284 0
671 0
692 0
829 0
853 0
659 0
555 0
867 0
447 0
663 0
917 0
127 0
945 0
749 0
365 0
951 0
452 0
461 0
978 0
172 0
498 0
994 0
891 0
793 0
989 0
834 0
848 0
882 0
424 0
574 0
777 0
599 0
816 0
875 0
786 0
754 0
762 0
966 0
728 0
326 0
358 0
381 0
188 0
923 0
932 0
222 0
333 0
238 0
215 0
143 0
241 0
342 0
413 0
537 0
636 0
439 0
583 0
687 0
711 0
735 0
119 0
131 0
156 0
164 0
476 0
485 0
